WARNING: for repeatability, setting FPU to use double precision
============================[ Problem Statistics ]=============================
|                                                                             |
|  Number of variables:           100                                         |
|  Number of clauses:             449                                         |
|  Parse time:                   0.00 s                                       |
|  Eliminated clauses:           0.00 Mb                                      |
|  Simplification time:          0.00 s                                       |
|                                                                             |
============================[ Search Statistics ]==============================
| Conflicts |          ORIGINAL         |          LEARNT          | Progress |
|           |    Vars  Clauses Literals |    Limit  Clauses Lit/Cl |          |
===============================================================================
|       100 |      98      447     1358 |      163      100      7 |  0.010 % |
===============================================================================
restarts              : 3
conflicts             : 214            (71572 /sec)
decisions             : 273            (0.00 % random) (91304 /sec)
propagations          : 4719           (1578261 /sec)
conflict literals     : 1398           (20.52 % deleted)
Memory used           : 13.00 MB
CPU time              : 0.00299 s

SATISFIABLE
